z1,z2,z3,nondominated
2,7,1,0
2,8,1,0
1,7,4,0
1,7,2,0
4,7,4,0
8,1,7,0
9,4,8,0
3,8,3,0
7,1,7,0
3,8,1,0
9,4,8,0
10,3,8,0
2,9,2,0
8,2,9,0
9,1,8,0
8,3,8,0
1,7,1,0
7,2,7,0
10,1,7,0
10,2,9,0
2,7,1,0
1,9,4,0
10,2,10,0
4,9,2,0
3,8,2,0
1,8,2,0
4,10,2,0
10,1,7,0
3,8,4,0
9,4,9,0
9,3,8,0
8,1,9,0
3,8,3,0
9,4,9,0
7,4,10,0
9,2,7,0
1,1,1,0
1,1,1,0
1,1,1,0
1,1,1,0
1,1,1,0
1,1,1,0
